
Gurobi 10.0.2 (win64, .NET) logging started Fri Aug 11 18:26:44 2023

Set parameter LogFile to value "ftsp.log"

Gurobi 10.0.2 (win64, .NET) logging started Fri Aug 11 18:33:02 2023

Set parameter LogFile to value "ftsp.log"

Gurobi 10.0.2 (win64, .NET) logging started Fri Aug 11 20:05:50 2023

Set parameter LogFile to value "ftsp.log"

Gurobi 10.0.2 (win64, .NET) logging started Fri Aug 11 20:05:50 2023

Set parameter LogFile to value "ftsp.log"

Gurobi 10.0.2 (win64, .NET) logging started Fri Aug 11 20:05:50 2023

Set parameter LogFile to value "ftsp.log"

Gurobi 10.0.2 (win64, .NET) logging started Fri Aug 11 20:05:50 2023

Set parameter LogFile to value "ftsp.log"

Gurobi 10.0.2 (win64, .NET) logging started Fri Aug 11 20:05:50 2023

Set parameter LogFile to value "ftsp.log"

Gurobi 10.0.2 (win64, .NET) logging started Fri Aug 11 20:05:50 2023

Set parameter LogFile to value "ftsp.log"

Gurobi 10.0.2 (win64, .NET) logging started Fri Aug 11 20:05:50 2023

Set parameter LogFile to value "ftsp.log"

Gurobi 10.0.2 (win64, .NET) logging started Fri Aug 11 20:05:50 2023

Set parameter LogFile to value "ftsp.log"

Gurobi 10.0.2 (win64, .NET) logging started Fri Aug 11 20:05:50 2023

Set parameter LogFile to value "ftsp.log"

Gurobi 10.0.2 (win64, .NET) logging started Fri Aug 11 20:05:50 2023

Set parameter LogFile to value "ftsp.log"

Gurobi 10.0.2 (win64, .NET) logging started Fri Aug 11 20:05:50 2023

Set parameter LogFile to value "ftsp.log"

Gurobi 10.0.2 (win64, .NET) logging started Fri Aug 11 20:05:50 2023

Set parameter LogFile to value "ftsp.log"

Gurobi 10.0.2 (win64, .NET) logging started Fri Aug 11 20:05:50 2023

Set parameter LogFile to value "ftsp.log"
